%%% static parameters %%%
timespan = 1;
Fact = [3];
Distr1 = [10];
Distr2 = [20];
Clients_N = [40];
Demand_W = [15];
Lt0 = [4];
Lt1 = [4];
SS_ = [0.85];
DS_D = [7];
K = [200];
MA = [500];
%%% dynamic parameters %%%
lost_ratio_sales_ret_th = 0.8543526630533603;
lost_ratio_sales_ret_w = 5;
lost_ratio_sales_dis_th = 0.015332134267148634;
lost_ratio_sales_dis_w = 8;
lost_ratio_sales_fac_th = 0.567640846746939;
lost_ratio_sales_fac_w = 71;
stock_customer_MA_mean_relative_th = 0.5737786850137074;
stock_customer_MA_mean_relative_w = 91;
stock_distributor_MA_mean_relative_th = 0.3610460338043472;
stock_distributor_MA_mean_relative_w = 95;
stock_retailer_MA_mean_relative_th = 0.28981392263347683;
stock_retailer_MA_mean_relative_w = 22;
stock_factory_MA_mean_relative_th = 0.5472712348969069;
stock_factory_MA_mean_relative_w = 98;
